DIMENSION: 16
EDGE_WEIGHT_TYPE: EXPLICIT
EDGE_WEIGHT_FORMAT: FULL_MATRIX
EDGE_WEIGHT_SECTION:
32767 32767 32767 32767 23 32767 32767 32767 86 32767 32767 32767 32767 32767 32767 72 
32767 32767 32767 32767 64 32767 32767 32767 8 32767 67 32767 32767 32767 32767 32767 
32767 32767 32767 19 32767 32767 32767 32767 32767 32767 32767 99 10 27 85 90 
32767 32767 19 32767 32767 32767 32767 32767 32767 32767 32767 48 32767 32767 32767 32767 
23 64 32767 32767 32767 32767 32767 32767 32767 32767 32767 32767 32767 32767 57 20 
32767 32767 32767 32767 32767 32767 32767 4 32767 32767 32767 32767 32767 32767 32767 32767 
32767 32767 32767 32767 32767 32767 32767 6 32767 32767 14 32767 32767 98 32767 32767 
32767 32767 32767 32767 32767 4 6 32767 32767 32767 32767 32767 5 32767 32767 32767 
86 8 32767 32767 32767 32767 32767 32767 32767 32767 67 79 32767 52 32767 32767 
32767 32767 32767 32767 32767 32767 32767 32767 32767 32767 89 70 32767 32767 32767 32767 
32767 67 32767 32767 32767 32767 14 32767 67 89 32767 32767 32767 32767 32767 32767 
32767 32767 99 48 32767 32767 32767 32767 79 70 32767 32767 32767 32767 13 90 
32767 32767 10 32767 32767 32767 32767 5 32767 32767 32767 32767 32767 32767 20 32767 
32767 32767 27 32767 32767 32767 98 32767 52 32767 32767 32767 32767 32767 32767 23 
32767 32767 85 32767 57 32767 32767 32767 32767 32767 32767 13 20 32767 32767 32767 
72 32767 90 32767 20 32767 32767 32767 32767 32767 32767 90 32767 23 32767 32767 
EOF